p cnf 272 1911
137 153 0
113 125 187 216 0
55 134 142 0
48 50 129 195 0
100 105 117 0
89 91 110 119 158 162 0
85 88 269 0
40 135 145 271 0
161 167 169 185 226 0
36 122 175 230 0
132 177 178 181 234 0
107 131 184 193 239 0
92 121 197 0
83 139 147 151 156 192 0
166 196 200 203 0
13 102 0
73 90 94 108 0
70 72 86 0
69 79 0
67 68 170 173 0
64 65 182 0
61 62 111 0
58 81 130 150 152 0
51 53 136 143 0
46 47 49 0
44 45 0
75 98 0
41 84 0
38 39 0
34 35 37 0
30 32 33 120 0
56 80 148 149 0
26 29 77 115 0
19 20 22 25 42 0
11 12 15 17 101 0
74 103 199 202 0
71 205 206 0
207 208 209 0
210 211 212 0
174 213 214 0
112 126 189 215 0
138 154 0
52 124 217 0
59 218 220 222 0
97 224 0
87 225 0
109 159 163 0
114 160 186 227 229 0
123 188 231 233 0
31 176 235 236 0
180 194 240 242 0
24 27 116 237 243 0
82 146 155 191 244 0
14 165 201 0
204 246 247 265 0
-110 -226 0
-110 -230 0
-110 -234 0
-226 -230 0
-226 -234 0
-230 -234 0
-43 -83 0
-13 -83 0
-73 -83 0
-13 -43 0
-43 -73 0
-13 -73 0
-62 -190 0
-58 -62 0
-62 -136 0
-45 -62 0
-58 -190 0
-136 -190 0
-45 -190 0
-58 -136 0
-45 -58 0
-45 -136 0
-25 -77 0
-17 -77 0
-77 -199 0
-71 -77 0
-17 -25 0
-25 -199 0
-25 -71 0
-17 -199 0
-17 -71 0
-71 -199 0
-183 -248 0
-215 -248 0
-248 -250 0
-52 -248 0
-183 -215 0
-183 -250 0
-52 -183 0
-215 -250 0
-52 -215 0
-52 -250 0
-140 -180 0
-116 -180 0
-180 -244 0
-180 -204 0
-116 -140 0
-140 -244 0
-140 -204 0
-116 -244 0
-116 -204 0
-204 -244 0
-83 -110 0
-43 -226 0
-62 -226 0
-77 -226 0
-226 -248 0
-180 -226 0
-43 -62 0
-43 -77 0
-43 -248 0
-43 -180 0
-62 -77 0
-62 -248 0
-62 -180 0
-77 -248 0
-77 -180 0
-180 -248 0
-13 -230 0
-190 -230 0
-25 -230 0
-183 -230 0
-140 -230 0
-13 -190 0
-13 -25 0
-13 -183 0
-13 -140 0
-25 -190 0
-183 -190 0
-140 -190 0
-25 -183 0
-25 -140 0
-140 -183 0
-73 -234 0
-58 -234 0
-17 -234 0
-215 -234 0
-116 -234 0
-58 -73 0
-17 -73 0
-73 -215 0
-73 -116 0
-17 -58 0
-58 -215 0
-58 -116 0
-17 -215 0
-17 -116 0
-116 -215 0
-136 -199 0
-136 -250 0
-136 -244 0
-199 -250 0
-199 -244 0
-244 -250 0
-45 -71 0
-45 -52 0
-45 -204 0
-52 -71 0
-71 -204 0
-52 -204 0
-153 -252 0
-187 -252 0
-251 -252 0
-195 -252 0
-153 -187 0
-153 -251 0
-153 -195 0
-187 -251 0
-187 -195 0
-195 -251 0
-147 -166 0
-147 -254 0
-21 -147 0
-108 -147 0
-166 -254 0
-21 -166 0
-108 -166 0
-21 -254 0
-108 -254 0
-21 -108 0
-170 -255 0
-65 -170 0
-61 -170 0
-81 -170 0
-53 -170 0
-49 -170 0
-65 -255 0
-61 -255 0
-81 -255 0
-53 -255 0
-49 -255 0
-61 -65 0
-65 -81 0
-53 -65 0
-49 -65 0
-61 -81 0
-53 -61 0
-49 -61 0
-53 -81 0
-49 -81 0
-49 -53 0
-75 -118 0
-75 -93 0
-75 -84 0
-75 -164 0
-37 -75 0
-75 -133 0
-93 -118 0
-84 -118 0
-118 -164 0
-37 -118 0
-118 -133 0
-84 -93 0
-93 -164 0
-37 -93 0
-93 -133 0
-84 -164 0
-37 -84 0
-84 -133 0
-37 -164 0
-133 -164 0
-37 -133 0
-56 -120 0
-120 -157 0
-115 -120 0
-15 -120 0
-103 -120 0
-95 -120 0
-56 -157 0
-56 -115 0
-15 -56 0
-56 -103 0
-56 -95 0
-115 -157 0
-15 -157 0
-103 -157 0
-95 -157 0
-15 -115 0
-103 -115 0
-95 -115 0
-15 -103 0
-15 -95 0
-95 -103 0
-218 -256 0
-218 -257 0
-109 -218 0
-171 -218 0
-256 -257 0
-109 -256 0
-171 -256 0
-109 -257 0
-171 -257 0
-109 -171 0
-227 -231 0
-227 -235 0
-82 -227 0
-14 -227 0
-231 -235 0
-82 -231 0
-14 -231 0
-82 -235 0
-14 -235 0
-14 -82 0
-147 -252 0
-170 -252 0
-75 -252 0
-120 -252 0
-218 -252 0
-227 -252 0
-147 -170 0
-75 -147 0
-120 -147 0
-147 -218 0
-147 -227 0
-75 -170 0
-120 -170 0
-170 -218 0
-170 -227 0
-75 -120 0
-75 -218 0
-75 -227 0
-120 -218 0
-120 -227 0
-218 -227 0
-153 -166 0
-153 -255 0
-118 -153 0
-56 -153 0
-153 -256 0
-153 -231 0
-166 -255 0
-118 -166 0
-56 -166 0
-166 -256 0
-166 -231 0
-118 -255 0
-56 -255 0
-255 -256 0
-231 -255 0
-56 -118 0
-118 -256 0
-118 -231 0
-56 -256 0
-56 -231 0
-231 -256 0
-187 -254 0
-65 -187 0
-93 -187 0
-157 -187 0
-187 -257 0
-187 -235 0
-65 -254 0
-93 -254 0
-157 -254 0
-254 -257 0
-235 -254 0
-65 -93 0
-65 -157 0
-65 -257 0
-65 -235 0
-93 -157 0
-93 -257 0
-93 -235 0
-157 -257 0
-157 -235 0
-235 -257 0
-21 -251 0
-61 -251 0
-84 -251 0
-115 -251 0
-21 -61 0
-21 -84 0
-21 -115 0
-61 -84 0
-61 -115 0
-84 -115 0
-108 -195 0
-81 -195 0
-164 -195 0
-15 -195 0
-81 -108 0
-108 -164 0
-15 -108 0
-81 -164 0
-15 -81 0
-15 -164 0
-37 -53 0
-53 -103 0
-53 -109 0
-53 -82 0
-37 -103 0
-37 -109 0
-37 -82 0
-103 -109 0
-82 -103 0
-82 -109 0
-49 -133 0
-49 -95 0
-49 -171 0
-14 -49 0
-95 -133 0
-133 -171 0
-14 -133 0
-95 -171 0
-14 -95 0
-14 -171 0
-88 -119 0
-119 -135 0
-107 -119 0
-119 -197 0
-88 -135 0
-88 -107 0
-88 -197 0
-107 -135 0
-135 -197 0
-107 -197 0
-151 -196 0
-28 -151 0
-72 -151 0
-69 -151 0
-28 -196 0
-72 -196 0
-69 -196 0
-28 -72 0
-28 -69 0
-69 -72 0
-68 -258 0
-64 -68 0
-68 -259 0
-64 -258 0
-258 -259 0
-64 -259 0
-33 -80 0
-33 -241 0
-22 -33 0
-80 -241 0
-22 -80 0
-22 -241 0
-207 -210 0
-174 -207 0
-207 -253 0
-154 -207 0
-174 -210 0
-210 -253 0
-154 -210 0
-174 -253 0
-154 -174 0
-154 -253 0
-229 -233 0
-31 -229 0
-146 -229 0
-165 -229 0
-31 -233 0
-146 -233 0
-165 -233 0
-31 -146 0
-31 -165 0
-146 -165 0
-119 -151 0
-68 -119 0
-33 -119 0
-119 -207 0
-119 -229 0
-68 -151 0
-33 -151 0
-151 -207 0
-151 -229 0
-33 -68 0
-68 -207 0
-68 -229 0
-33 -207 0
-33 -229 0
-207 -229 0
-88 -196 0
-88 -258 0
-80 -88 0
-88 -210 0
-88 -233 0
-196 -258 0
-80 -196 0
-196 -210 0
-196 -233 0
-80 -258 0
-210 -258 0
-233 -258 0
-80 -210 0
-80 -233 0
-210 -233 0
-28 -135 0
-64 -135 0
-135 -241 0
-135 -174 0
-31 -135 0
-28 -64 0
-28 -241 0
-28 -174 0
-28 -31 0
-64 -241 0
-64 -174 0
-31 -64 0
-174 -241 0
-31 -241 0
-31 -174 0
-22 -259 0
-72 -107 0
-107 -253 0
-107 -146 0
-72 -253 0
-72 -146 0
-146 -253 0
-69 -197 0
-154 -197 0
-165 -197 0
-69 -154 0
-69 -165 0
-154 -165 0
-92 -184 0
-127 -150 0
-127 -143 0
-47 -127 0
-143 -150 0
-47 -150 0
-47 -143 0
-39 -168 0
-35 -39 0
-39 -179 0
-35 -168 0
-168 -179 0
-35 -179 0
-211 -260 0
-112 -211 0
-112 -260 0
-188 -198 0
-27 -188 0
-27 -198 0
-188 -211 0
-39 -127 0
-127 -260 0
-127 -198 0
-39 -260 0
-39 -198 0
-198 -260 0
-150 -168 0
-112 -150 0
-27 -150 0
-112 -168 0
-27 -168 0
-27 -112 0
-143 -184 0
-35 -184 0
-35 -143 0
-47 -92 0
-92 -179 0
-47 -179 0
-137 -262 0
-216 -262 0
-60 -262 0
-96 -262 0
-105 -262 0
-137 -216 0
-60 -137 0
-96 -137 0
-105 -137 0
-60 -216 0
-96 -216 0
-105 -216 0
-60 -96 0
-60 -105 0
-96 -105 0
-158 -269 0
-158 -271 0
-158 -185 0
-158 -193 0
-158 -238 0
-269 -271 0
-185 -269 0
-193 -269 0
-238 -269 0
-185 -271 0
-193 -271 0
-238 -271 0
-185 -193 0
-185 -238 0
-193 -238 0
-192 -200 0
-192 -245 0
-18 -192 0
-70 -192 0
-192 -264 0
-200 -245 0
-18 -200 0
-70 -200 0
-200 -264 0
-18 -245 0
-70 -245 0
-245 -264 0
-18 -70 0
-18 -264 0
-70 -264 0
-67 -249 0
-67 -182 0
-51 -67 0
-44 -67 0
-182 -249 0
-51 -249 0
-44 -249 0
-51 -182 0
-44 -182 0
-44 -51 0
-32 -149 0
-32 -141 0
-32 -202 0
-32 -205 0
-141 -149 0
-149 -202 0
-149 -205 0
-141 -202 0
-141 -205 0
-202 -205 0
-208 -212 0
-208 -213 0
-212 -213 0
-158 -262 0
-192 -262 0
-67 -262 0
-32 -262 0
-208 -262 0
-158 -192 0
-67 -158 0
-32 -158 0
-158 -208 0
-67 -192 0
-32 -192 0
-192 -208 0
-32 -67 0
-67 -208 0
-32 -208 0
-137 -269 0
-137 -200 0
-137 -249 0
-137 -149 0
-137 -212 0
-200 -269 0
-249 -269 0
-149 -269 0
-212 -269 0
-200 -249 0
-149 -200 0
-200 -212 0
-149 -249 0
-212 -249 0
-149 -212 0
-216 -271 0
-216 -245 0
-182 -216 0
-141 -216 0
-213 -216 0
-245 -271 0
-182 -271 0
-141 -271 0
-213 -271 0
-182 -245 0
-141 -245 0
-213 -245 0
-141 -182 0
-182 -213 0
-141 -213 0
-60 -185 0
-18 -60 0
-18 -185 0
-96 -193 0
-70 -96 0
-51 -96 0
-96 -202 0
-70 -193 0
-51 -193 0
-193 -202 0
-51 -70 0
-70 -202 0
-51 -202 0
-105 -238 0
-105 -264 0
-44 -105 0
-105 -205 0
-238 -264 0
-44 -238 0
-205 -238 0
-44 -264 0
-205 -264 0
-44 -205 0
-66 -113 0
-66 -219 0
-55 -66 0
-50 -66 0
-66 -221 0
-66 -76 0
-66 -117 0
-113 -219 0
-55 -113 0
-50 -113 0
-113 -221 0
-76 -113 0
-113 -117 0
-55 -219 0
-50 -219 0
-219 -221 0
-76 -219 0
-117 -219 0
-50 -55 0
-55 -221 0
-55 -76 0
-55 -117 0
-50 -221 0
-50 -76 0
-50 -117 0
-76 -221 0
-117 -221 0
-76 -117 0
-145 -162 0
-161 -162 0
-122 -162 0
-132 -162 0
-131 -162 0
-121 -162 0
-57 -162 0
-145 -161 0
-122 -145 0
-132 -145 0
-131 -145 0
-121 -145 0
-57 -145 0
-122 -161 0
-132 -161 0
-131 -161 0
-121 -161 0
-57 -161 0
-122 -132 0
-122 -131 0
-121 -122 0
-57 -122 0
-131 -132 0
-121 -132 0
-57 -132 0
-121 -131 0
-57 -131 0
-57 -121 0
-156 -266 0
-16 -156 0
-102 -156 0
-94 -156 0
-86 -156 0
-79 -156 0
-156 -267 0
-16 -266 0
-102 -266 0
-94 -266 0
-86 -266 0
-79 -266 0
-266 -267 0
-16 -102 0
-16 -94 0
-16 -86 0
-16 -79 0
-16 -267 0
-94 -102 0
-86 -102 0
-79 -102 0
-102 -267 0
-86 -94 0
-79 -94 0
-94 -267 0
-79 -86 0
-86 -267 0
-79 -267 0
-38 -41 0
-41 -172 0
-34 -41 0
-41 -228 0
-41 -232 0
-38 -172 0
-34 -38 0
-38 -228 0
-38 -232 0
-34 -172 0
-172 -228 0
-172 -232 0
-34 -228 0
-34 -232 0
-228 -232 0
-29 -42 0
-12 -29 0
-29 -74 0
-29 -268 0
-29 -206 0
-12 -42 0
-42 -74 0
-42 -268 0
-42 -206 0
-12 -74 0
-12 -268 0
-12 -206 0
-74 -268 0
-74 -206 0
-206 -268 0
-209 -214 0
-209 -263 0
-63 -209 0
-189 -209 0
-209 -261 0
-138 -209 0
-209 -217 0
-214 -263 0
-63 -214 0
-189 -214 0
-214 -261 0
-138 -214 0
-214 -217 0
-63 -263 0
-189 -263 0
-261 -263 0
-138 -263 0
-217 -263 0
-63 -189 0
-63 -261 0
-63 -138 0
-63 -217 0
-189 -261 0
-138 -189 0
-189 -217 0
-138 -261 0
-217 -261 0
-138 -217 0
-59 -106 0
-59 -97 0
-59 -87 0
-59 -104 0
-59 -159 0
-59 -270 0
-59 -272 0
-97 -106 0
-87 -106 0
-104 -106 0
-106 -159 0
-106 -270 0
-106 -272 0
-87 -97 0
-97 -104 0
-97 -159 0
-97 -270 0
-97 -272 0
-87 -104 0
-87 -159 0
-87 -270 0
-87 -272 0
-104 -159 0
-104 -270 0
-104 -272 0
-159 -270 0
-159 -272 0
-270 -272 0
-186 -236 0
-186 -194 0
-78 -186 0
-186 -237 0
-186 -191 0
-186 -201 0
-186 -246 0
-194 -236 0
-78 -236 0
-236 -237 0
-191 -236 0
-201 -236 0
-236 -246 0
-78 -194 0
-194 -237 0
-191 -194 0
-194 -201 0
-194 -246 0
-78 -237 0
-78 -191 0
-78 -201 0
-78 -246 0
-191 -237 0
-201 -237 0
-237 -246 0
-191 -201 0
-191 -246 0
-201 -246 0
-66 -162 0
-66 -156 0
-66 -209 0
-59 -66 0
-66 -186 0
-156 -162 0
-162 -209 0
-59 -162 0
-162 -186 0
-156 -209 0
-59 -156 0
-156 -186 0
-59 -209 0
-186 -209 0
-59 -186 0
-113 -145 0
-113 -266 0
-113 -214 0
-106 -113 0
-113 -236 0
-145 -266 0
-145 -214 0
-106 -145 0
-145 -236 0
-214 -266 0
-106 -266 0
-236 -266 0
-106 -214 0
-214 -236 0
-106 -236 0
-161 -219 0
-16 -219 0
-41 -219 0
-29 -219 0
-219 -263 0
-97 -219 0
-194 -219 0
-16 -161 0
-41 -161 0
-29 -161 0
-161 -263 0
-97 -161 0
-161 -194 0
-16 -41 0
-16 -29 0
-16 -263 0
-16 -97 0
-16 -194 0
-29 -41 0
-41 -263 0
-41 -97 0
-41 -194 0
-29 -263 0
-29 -97 0
-29 -194 0
-97 -263 0
-194 -263 0
-97 -194 0
-55 -122 0
-55 -102 0
-38 -55 0
-42 -55 0
-55 -63 0
-55 -87 0
-55 -78 0
-102 -122 0
-38 -122 0
-42 -122 0
-63 -122 0
-87 -122 0
-78 -122 0
-38 -102 0
-42 -102 0
-63 -102 0
-87 -102 0
-78 -102 0
-38 -42 0
-38 -63 0
-38 -87 0
-38 -78 0
-42 -63 0
-42 -87 0
-42 -78 0
-63 -87 0
-63 -78 0
-78 -87 0
-50 -132 0
-50 -94 0
-50 -172 0
-12 -50 0
-50 -189 0
-50 -104 0
-50 -237 0
-94 -132 0
-132 -172 0
-12 -132 0
-132 -189 0
-104 -132 0
-132 -237 0
-94 -172 0
-12 -94 0
-94 -189 0
-94 -104 0
-94 -237 0
-12 -172 0
-172 -189 0
-104 -172 0
-172 -237 0
-12 -189 0
-12 -104 0
-12 -237 0
-104 -189 0
-189 -237 0
-104 -237 0
-131 -221 0
-86 -221 0
-34 -221 0
-74 -221 0
-221 -261 0
-159 -221 0
-191 -221 0
-86 -131 0
-34 -131 0
-74 -131 0
-131 -261 0
-131 -159 0
-131 -191 0
-34 -86 0
-74 -86 0
-86 -261 0
-86 -159 0
-86 -191 0
-34 -74 0
-34 -261 0
-34 -159 0
-34 -191 0
-74 -261 0
-74 -159 0
-74 -191 0
-159 -261 0
-191 -261 0
-159 -191 0
-76 -121 0
-76 -79 0
-76 -228 0
-76 -268 0
-76 -138 0
-76 -270 0
-76 -201 0
-79 -121 0
-121 -228 0
-121 -268 0
-121 -138 0
-121 -270 0
-121 -201 0
-79 -228 0
-79 -268 0
-79 -138 0
-79 -270 0
-79 -201 0
-228 -268 0
-138 -228 0
-228 -270 0
-201 -228 0
-138 -268 0
-268 -270 0
-201 -268 0
-138 -270 0
-138 -201 0
-201 -270 0
-57 -117 0
-117 -267 0
-117 -232 0
-117 -206 0
-117 -217 0
-117 -272 0
-117 -246 0
-57 -267 0
-57 -232 0
-57 -206 0
-57 -217 0
-57 -272 0
-57 -246 0
-232 -267 0
-206 -267 0
-217 -267 0
-267 -272 0
-246 -267 0
-206 -232 0
-217 -232 0
-232 -272 0
-232 -246 0
-206 -217 0
-206 -272 0
-206 -246 0
-217 -272 0
-217 -246 0
-246 -272 0
-129 -134 0
-134 -223 0
-100 -134 0
-129 -223 0
-100 -129 0
-100 -223 0
-175 -177 0
-175 -239 0
-23 -175 0
-177 -239 0
-23 -177 0
-23 -239 0
-10 -173 0
-9 -173 0
-152 -173 0
-9 -10 0
-10 -152 0
-9 -152 0
-30 -148 0
-20 -30 0
-11 -30 0
-20 -148 0
-11 -148 0
-11 -20 0
-54 -220 0
-163 -220 0
-144 -220 0
-54 -163 0
-54 -144 0
-144 -163 0
-123 -160 0
-155 -160 0
-160 -265 0
-123 -155 0
-123 -265 0
-155 -265 0
-30 -173 0
-173 -220 0
-160 -173 0
-30 -220 0
-30 -160 0
-160 -220 0
-10 -148 0
-10 -54 0
-10 -123 0
-54 -148 0
-123 -148 0
-54 -123 0
-134 -175 0
-9 -134 0
-20 -134 0
-9 -175 0
-20 -175 0
-9 -20 0
-129 -177 0
-129 -152 0
-11 -129 0
-152 -177 0
-11 -177 0
-11 -152 0
-223 -239 0
-163 -223 0
-155 -223 0
-163 -239 0
-155 -239 0
-155 -163 0
-23 -100 0
-100 -144 0
-100 -265 0
-23 -144 0
-23 -265 0
-144 -265 0
-8 -125 0
-7 -8 0
-8 -142 0
-8 -48 0
-7 -125 0
-125 -142 0
-48 -125 0
-7 -142 0
-7 -48 0
-48 -142 0
-40 -91 0
-91 -167 0
-36 -91 0
-91 -178 0
-40 -167 0
-36 -40 0
-40 -178 0
-36 -167 0
-167 -178 0
-36 -178 0
-6 -111 0
-111 -130 0
-46 -111 0
-6 -130 0
-6 -46 0
-46 -130 0
-19 -26 0
-26 -101 0
-5 -26 0
-19 -101 0
-5 -19 0
-5 -101 0
-128 -222 0
-222 -224 0
-222 -225 0
-99 -222 0
-128 -224 0
-128 -225 0
-99 -128 0
-224 -225 0
-99 -224 0
-99 -225 0
-114 -176 0
-114 -240 0
-4 -114 0
-24 -114 0
-176 -240 0
-4 -176 0
-24 -176 0
-4 -240 0
-24 -240 0
-4 -24 0
-8 -91 0
-8 -222 0
-8 -114 0
-91 -222 0
-91 -114 0
-114 -222 0
-40 -125 0
-125 -128 0
-125 -176 0
-40 -128 0
-40 -176 0
-128 -176 0
-7 -167 0
-7 -111 0
-7 -26 0
-7 -224 0
-7 -240 0
-111 -167 0
-26 -167 0
-167 -224 0
-167 -240 0
-26 -111 0
-111 -224 0
-111 -240 0
-26 -224 0
-26 -240 0
-224 -240 0
-36 -142 0
-6 -142 0
-19 -142 0
-142 -225 0
-4 -142 0
-6 -36 0
-19 -36 0
-36 -225 0
-4 -36 0
-6 -19 0
-6 -225 0
-4 -6 0
-19 -225 0
-4 -19 0
-4 -225 0
-48 -178 0
-48 -130 0
-48 -101 0
-48 -99 0
-24 -48 0
-130 -178 0
-101 -178 0
-99 -178 0
-24 -178 0
-101 -130 0
-99 -130 0
-24 -130 0
-99 -101 0
-24 -101 0
-24 -99 0
-5 -46 0
-85 -89 0
-89 -169 0
-89 -181 0
-85 -169 0
-85 -181 0
-169 -181 0
-139 -203 0
-3 -139 0
-90 -139 0
-3 -203 0
-90 -203 0
-3 -90 0
-2 -98 0
-1 -126 0
-1 -124 0
-124 -126 0
-242 -243 0
-242 -247 0
-243 -247 0
-89 -139 0
-89 -98 0
-98 -139 0
-85 -203 0
-2 -85 0
-2 -203 0
-3 -169 0
-1 -169 0
-169 -242 0
-1 -3 0
-3 -242 0
-1 -242 0
-90 -181 0
-126 -181 0
-181 -243 0
-90 -126 0
-90 -243 0
-126 -243 0
-124 -247 0
-83 -110 0
-153 -252 0
-187 -252 0
-147 -252 0
-166 -252 0
-252 -254 0
-153 -187 0
-147 -153 0
-153 -166 0
-153 -254 0
-147 -187 0
-166 -187 0
-187 -254 0
-147 -166 0
-147 -254 0
-166 -254 0
-88 -119 0
-119 -135 0
-119 -151 0
-119 -196 0
-28 -119 0
-88 -135 0
-88 -151 0
-88 -196 0
-28 -88 0
-135 -151 0
-135 -196 0
-28 -135 0
-151 -196 0
-28 -151 0
-28 -196 0
-137 -262 0
-216 -262 0
-158 -262 0
-262 -269 0
-262 -271 0
-192 -262 0
-200 -262 0
-245 -262 0
-137 -216 0
-137 -158 0
-137 -269 0
-137 -271 0
-137 -192 0
-137 -200 0
-137 -245 0
-158 -216 0
-216 -269 0
-216 -271 0
-192 -216 0
-200 -216 0
-216 -245 0
-158 -269 0
-158 -271 0
-158 -192 0
-158 -200 0
-158 -245 0
-269 -271 0
-192 -269 0
-200 -269 0
-245 -269 0
-192 -271 0
-200 -271 0
-245 -271 0
-192 -200 0
-192 -245 0
-200 -245 0
-66 -113 0
-66 -162 0
-66 -145 0
-66 -156 0
-66 -266 0
-113 -162 0
-113 -145 0
-113 -156 0
-113 -266 0
-145 -162 0
-156 -162 0
-162 -266 0
-145 -156 0
-145 -266 0
-156 -266 0
-8 -125 0
-8 -91 0
-8 -40 0
-91 -125 0
-40 -125 0
-40 -91 0
-85 -89 0
-89 -139 0
-89 -203 0
-85 -139 0
-85 -203 0
-139 -203 0
-226 -230 0
-226 -234 0
-43 -226 0
-13 -226 0
-73 -226 0
-230 -234 0
-43 -230 0
-13 -230 0
-73 -230 0
-43 -234 0
-13 -234 0
-73 -234 0
-13 -43 0
-43 -73 0
-13 -73 0
-195 -251 0
-21 -251 0
-108 -251 0
-21 -195 0
-108 -195 0
-21 -108 0
-60 -185 0
-18 -60 0
-18 -185 0
-55 -219 0
-50 -219 0
-161 -219 0
-122 -219 0
-132 -219 0
-16 -219 0
-102 -219 0
-94 -219 0
-50 -55 0
-55 -161 0
-55 -122 0
-55 -132 0
-16 -55 0
-55 -102 0
-55 -94 0
-50 -161 0
-50 -122 0
-50 -132 0
-16 -50 0
-50 -102 0
-50 -94 0
-122 -161 0
-132 -161 0
-16 -161 0
-102 -161 0
-94 -161 0
-122 -132 0
-16 -122 0
-102 -122 0
-94 -122 0
-16 -132 0
-102 -132 0
-94 -132 0
-16 -102 0
-16 -94 0
-94 -102 0
-129 -134 0
-134 -175 0
-134 -177 0
-129 -175 0
-129 -177 0
-175 -177 0
-7 -142 0
-7 -48 0
-7 -167 0
-7 -36 0
-7 -178 0
-48 -142 0
-142 -167 0
-36 -142 0
-142 -178 0
-48 -167 0
-36 -48 0
-48 -178 0
-36 -167 0
-167 -178 0
-36 -178 0
-169 -181 0
-3 -169 0
-90 -169 0
-3 -181 0
-90 -181 0
-3 -90 0
-107 -197 0
-72 -107 0
-69 -107 0
-72 -197 0
-69 -197 0
-69 -72 0
-92 -184 0
-96 -105 0
-96 -193 0
-96 -238 0
-70 -96 0
-96 -264 0
-105 -193 0
-105 -238 0
-70 -105 0
-105 -264 0
-193 -238 0
-70 -193 0
-193 -264 0
-70 -238 0
-238 -264 0
-70 -264 0
-76 -221 0
-117 -221 0
-131 -221 0
-121 -221 0
-57 -221 0
-86 -221 0
-79 -221 0
-221 -267 0
-76 -117 0
-76 -131 0
-76 -121 0
-57 -76 0
-76 -86 0
-76 -79 0
-76 -267 0
-117 -131 0
-117 -121 0
-57 -117 0
-86 -117 0
-79 -117 0
-117 -267 0
-121 -131 0
-57 -131 0
-86 -131 0
-79 -131 0
-131 -267 0
-57 -121 0
-86 -121 0
-79 -121 0
-121 -267 0
-57 -86 0
-57 -79 0
-57 -267 0
-79 -86 0
-86 -267 0
-79 -267 0
-100 -223 0
-223 -239 0
-23 -223 0
-100 -239 0
-23 -100 0
-23 -239 0
-170 -255 0
-65 -170 0
-75 -170 0
-118 -170 0
-93 -170 0
-120 -170 0
-56 -170 0
-157 -170 0
-65 -255 0
-75 -255 0
-118 -255 0
-93 -255 0
-120 -255 0
-56 -255 0
-157 -255 0
-65 -75 0
-65 -118 0
-65 -93 0
-65 -120 0
-56 -65 0
-65 -157 0
-75 -118 0
-75 -93 0
-75 -120 0
-56 -75 0
-75 -157 0
-93 -118 0
-118 -120 0
-56 -118 0
-118 -157 0
-93 -120 0
-56 -93 0
-93 -157 0
-56 -120 0
-120 -157 0
-56 -157 0
-68 -258 0
-64 -68 0
-33 -68 0
-68 -80 0
-68 -241 0
-64 -258 0
-33 -258 0
-80 -258 0
-241 -258 0
-33 -64 0
-64 -80 0
-64 -241 0
-33 -80 0
-33 -241 0
-80 -241 0
-67 -249 0
-67 -182 0
-32 -67 0
-67 -149 0
-67 -141 0
-182 -249 0
-32 -249 0
-149 -249 0
-141 -249 0
-32 -182 0
-149 -182 0
-141 -182 0
-32 -149 0
-32 -141 0
-141 -149 0
-10 -173 0
-30 -173 0
-148 -173 0
-10 -30 0
-10 -148 0
-30 -148 0
-2 -98 0
-62 -190 0
-58 -62 0
-62 -77 0
-25 -62 0
-17 -62 0
-58 -190 0
-77 -190 0
-25 -190 0
-17 -190 0
-58 -77 0
-25 -58 0
-17 -58 0
-25 -77 0
-17 -77 0
-17 -25 0
-61 -81 0
-61 -84 0
-61 -164 0
-61 -115 0
-15 -61 0
-81 -84 0
-81 -164 0
-81 -115 0
-15 -81 0
-84 -164 0
-84 -115 0
-15 -84 0
-115 -164 0
-15 -164 0
-15 -115 0
-22 -259 0
-127 -150 0
-39 -127 0
-127 -168 0
-39 -150 0
-150 -168 0
-39 -168 0
-38 -41 0
-41 -172 0
-29 -41 0
-41 -42 0
-12 -41 0
-38 -172 0
-29 -38 0
-38 -42 0
-12 -38 0
-29 -172 0
-42 -172 0
-12 -172 0
-29 -42 0
-12 -29 0
-12 -42 0
-9 -152 0
-9 -20 0
-9 -11 0
-20 -152 0
-11 -152 0
-11 -20 0
-6 -111 0
-111 -130 0
-26 -111 0
-19 -111 0
-101 -111 0
-6 -130 0
-6 -26 0
-6 -19 0
-6 -101 0
-26 -130 0
-19 -130 0
-101 -130 0
-19 -26 0
-26 -101 0
-19 -101 0
-45 -136 0
-136 -199 0
-71 -136 0
-45 -199 0
-45 -71 0
-71 -199 0
-49 -53 0
-37 -53 0
-53 -133 0
-53 -103 0
-53 -95 0
-37 -49 0
-49 -133 0
-49 -103 0
-49 -95 0
-37 -133 0
-37 -103 0
-37 -95 0
-103 -133 0
-95 -133 0
-95 -103 0
-47 -143 0
-35 -143 0
-143 -179 0
-35 -47 0
-47 -179 0
-35 -179 0
-44 -51 0
-51 -202 0
-51 -205 0
-44 -202 0
-44 -205 0
-202 -205 0
-34 -228 0
-34 -232 0
-34 -74 0
-34 -268 0
-34 -206 0
-228 -232 0
-74 -228 0
-228 -268 0
-206 -228 0
-74 -232 0
-232 -268 0
-206 -232 0
-74 -268 0
-74 -206 0
-206 -268 0
-5 -46 0
-218 -256 0
-218 -257 0
-218 -227 0
-218 -231 0
-218 -235 0
-256 -257 0
-227 -256 0
-231 -256 0
-235 -256 0
-227 -257 0
-231 -257 0
-235 -257 0
-227 -231 0
-227 -235 0
-231 -235 0
-207 -210 0
-174 -207 0
-207 -229 0
-207 -233 0
-31 -207 0
-174 -210 0
-210 -229 0
-210 -233 0
-31 -210 0
-174 -229 0
-174 -233 0
-31 -174 0
-229 -233 0
-31 -229 0
-31 -233 0
-188 -211 0
-208 -212 0
-208 -213 0
-212 -213 0
-209 -214 0
-59 -209 0
-106 -209 0
-186 -209 0
-209 -236 0
-59 -214 0
-106 -214 0
-186 -214 0
-214 -236 0
-59 -106 0
-59 -186 0
-59 -236 0
-106 -186 0
-106 -236 0
-186 -236 0
-54 -220 0
-160 -220 0
-123 -220 0
-54 -160 0
-54 -123 0
-123 -160 0
-128 -222 0
-114 -222 0
-176 -222 0
-114 -128 0
-128 -176 0
-114 -176 0
-183 -248 0
-215 -248 0
-180 -248 0
-140 -248 0
-116 -248 0
-183 -215 0
-180 -183 0
-140 -183 0
-116 -183 0
-180 -215 0
-140 -215 0
-116 -215 0
-140 -180 0
-116 -180 0
-116 -140 0
-112 -260 0
-198 -260 0
-27 -260 0
-112 -198 0
-27 -112 0
-27 -198 0
-63 -263 0
-189 -263 0
-97 -263 0
-87 -263 0
-104 -263 0
-194 -263 0
-78 -263 0
-237 -263 0
-63 -189 0
-63 -97 0
-63 -87 0
-63 -104 0
-63 -194 0
-63 -78 0
-63 -237 0
-97 -189 0
-87 -189 0
-104 -189 0
-189 -194 0
-78 -189 0
-189 -237 0
-87 -97 0
-97 -104 0
-97 -194 0
-78 -97 0
-97 -237 0
-87 -104 0
-87 -194 0
-78 -87 0
-87 -237 0
-104 -194 0
-78 -104 0
-104 -237 0
-78 -194 0
-194 -237 0
-78 -237 0
-224 -225 0
-99 -224 0
-224 -240 0
-4 -224 0
-24 -224 0
-99 -225 0
-225 -240 0
-4 -225 0
-24 -225 0
-99 -240 0
-4 -99 0
-24 -99 0
-4 -240 0
-24 -240 0
-4 -24 0
-1 -126 0
-1 -242 0
-1 -243 0
-126 -242 0
-126 -243 0
-242 -243 0
-52 -250 0
-244 -250 0
-204 -250 0
-52 -244 0
-52 -204 0
-204 -244 0
-109 -171 0
-82 -109 0
-14 -109 0
-82 -171 0
-14 -171 0
-14 -82 0
-154 -253 0
-146 -253 0
-165 -253 0
-146 -154 0
-154 -165 0
-146 -165 0
-138 -261 0
-217 -261 0
-159 -261 0
-261 -270 0
-261 -272 0
-191 -261 0
-201 -261 0
-246 -261 0
-138 -217 0
-138 -159 0
-138 -270 0
-138 -272 0
-138 -191 0
-138 -201 0
-138 -246 0
-159 -217 0
-217 -270 0
-217 -272 0
-191 -217 0
-201 -217 0
-217 -246 0
-159 -270 0
-159 -272 0
-159 -191 0
-159 -201 0
-159 -246 0
-270 -272 0
-191 -270 0
-201 -270 0
-246 -270 0
-191 -272 0
-201 -272 0
-246 -272 0
-191 -201 0
-191 -246 0
-201 -246 0
-144 -163 0
-155 -163 0
-163 -265 0
-144 -155 0
-144 -265 0
-155 -265 0
-124 -247 0
